c colouring generated by benchmark framework
p edge 1000 449449
v 1 275
v 2 61
v 3 2
v 4 194
v 5 144
v 6 97
v 7 78
v 8 219
v 9 33
v 10 210
v 11 297
v 12 279
v 13 181
v 14 80
v 15 13
v 16 3
v 17 169
v 18 256
v 19 247
v 20 142
v 21 19
v 22 184
v 23 37
v 24 82
v 25 215
v 26 115
v 27 276
v 28 204
v 29 22
v 30 23
v 31 21
v 32 183
v 33 12
v 34 133
v 35 173
v 36 70
v 37 118
v 38 262
v 39 172
v 40 260
v 41 254
v 42 80
v 43 180
v 44 170
v 45 249
v 46 39
v 47 73
v 48 224
v 49 277
v 50 245
v 51 101
v 52 250
v 53 33
v 54 186
v 55 65
v 56 237
v 57 175
v 58 186
v 59 79
v 60 19
v 61 265
v 62 48
v 63 86
v 64 269
v 65 294
v 66 4
v 67 122
v 68 268
v 69 255
v 70 34
v 71 66
v 72 88
v 73 151
v 74 84
v 75 173
v 76 134
v 77 104
v 78 120
v 79 71
v 80 237
v 81 157
v 82 192
v 83 276
v 84 132
v 85 84
v 86 87
v 87 294
v 88 66
v 89 266
v 90 143
v 91 171
v 92 156
v 93 248
v 94 281
v 95 25
v 96 139
v 97 54
v 98 296
v 99 260
v 100 249
v 101 32
v 102 5
v 103 33
v 104 40
v 105 243
v 106 261
v 107 17
v 108 277
v 109 162
v 110 130
v 111 135
v 112 147
v 113 37
v 114 24
v 115 12
v 116 164
v 117 19
v 118 117
v 119 193
v 120 50
v 121 291
v 122 243
v 123 81
v 124 53
v 125 174
v 126 258
v 127 209
v 128 25
v 129 257
v 130 203
v 131 146
v 132 238
v 133 9
v 134 270
v 135 58
v 136 225
v 137 9
v 138 53
v 139 82
v 140 124
v 141 198
v 142 75
v 143 245
v 144 188
v 145 230
v 146 43
v 147 240
v 148 207
v 149 176
v 150 219
v 151 177
v 152 264
v 153 77
v 154 44
v 155 182
v 156 42
v 157 83
v 158 67
v 159 45
v 160 3
v 161 104
v 162 98
v 163 29
v 164 69
v 165 259
v 166 42
v 167 149
v 168 42
v 169 159
v 170 272
v 171 52
v 172 139
v 173 51
v 174 266
v 175 140
v 176 253
v 177 76
v 178 254
v 179 289
v 180 43
v 181 90
v 182 67
v 183 193
v 184 167
v 185 179
v 186 76
v 187 116
v 188 283
v 189 232
v 190 4
v 191 208
v 192 54
v 193 204
v 194 22
v 195 155
v 196 64
v 197 213
v 198 233
v 199 85
v 200 8
v 201 244
v 202 108
v 203 91
v 204 59
v 205 119
v 206 133
v 207 70
v 208 157
v 209 299
v 210 154
v 211 183
v 212 152
v 213 28
v 214 29
v 215 225
v 216 81
v 217 122
v 218 280
v 219 189
v 220 11
v 221 39
v 222 232
v 223 34
v 224 208
v 225 278
v 226 88
v 227 290
v 228 255
v 229 168
v 230 218
v 231 153
v 232 28
v 233 27
v 234 134
v 235 191
v 236 190
v 237 43
v 238 49
v 239 128
v 240 71
v 241 13
v 242 199
v 243 51
v 244 196
v 245 72
v 246 43
v 247 214
v 248 75
v 249 123
v 250 122
v 251 226
v 252 103
v 253 235
v 254 238
v 255 59
v 256 79
v 257 13
v 258 194
v 259 168
v 260 228
v 261 80
v 262 280
v 263 145
v 264 127
v 265 19
v 266 154
v 267 89
v 268 168
v 269 111
v 270 260
v 271 150
v 272 99
v 273 61
v 274 290
v 275 91
v 276 92
v 277 100
v 278 137
v 279 298
v 280 136
v 281 120
v 282 201
v 283 0
v 284 264
v 285 67
v 286 26
v 287 112
v 288 107
v 289 22
v 290 260
v 291 252
v 292 47
v 293 5
v 294 161
v 295 167
v 296 20
v 297 131
v 298 7
v 299 209
v 300 204
v 301 49
v 302 267
v 303 184
v 304 93
v 305 120
v 306 128
v 307 274
v 308 36
v 309 243
v 310 244
v 311 163
v 312 199
v 313 292
v 314 73
v 315 191
v 316 96
v 317 266
v 318 132
v 319 70
v 320 47
v 321 18
v 322 274
v 323 82
v 324 123
v 325 287
v 326 10
v 327 170
v 328 190
v 329 263
v 330 143
v 331 58
v 332 16
v 333 160
v 334 36
v 335 16
v 336 218
v 337 221
v 338 127
v 339 60
v 340 61
v 341 90
v 342 265
v 343 234
v 344 99
v 345 230
v 346 89
v 347 86
v 348 98
v 349 257
v 350 86
v 351 286
v 352 48
v 353 97
v 354 245
v 355 288
v 356 9
v 357 38
v 358 115
v 359 227
v 360 64
v 361 290
v 362 83
v 363 268
v 364 291
v 365 220
v 366 192
v 367 155
v 368 144
v 369 142
v 370 40
v 371 160
v 372 247
v 373 55
v 374 51
v 375 252
v 376 69
v 377 240
v 378 284
v 379 169
v 380 200
v 381 137
v 382 300
v 383 239
v 384 86
v 385 14
v 386 175
v 387 187
v 388 140
v 389 45
v 390 192
v 391 248
v 392 299
v 393 147
v 394 206
v 395 270
v 396 67
v 397 68
v 398 221
v 399 6
v 400 213
v 401 94
v 402 198
v 403 108
v 404 216
v 405 249
v 406 96
v 407 27
v 408 195
v 409 157
v 410 210
v 411 229
v 412 201
v 413 17
v 414 84
v 415 163
v 416 222
v 417 295
v 418 60
v 419 52
v 420 35
v 421 261
v 422 109
v 423 12
v 424 75
v 425 250
v 426 161
v 427 23
v 428 143
v 429 285
v 430 93
v 431 56
v 432 169
v 433 246
v 434 114
v 435 19
v 436 173
v 437 127
v 438 64
v 439 28
v 440 211
v 441 131
v 442 211
v 443 126
v 444 149
v 445 279
v 446 162
v 447 158
v 448 193
v 449 121
v 450 144
v 451 174
v 452 2
v 453 236
v 454 161
v 455 26
v 456 179
v 457 89
v 458 205
v 459 197
v 460 104
v 461 72
v 462 63
v 463 73
v 464 105
v 465 166
v 466 139
v 467 182
v 468 200
v 469 126
v 470 25
v 471 1
v 472 283
v 473 34
v 474 203
v 475 72
v 476 181
v 477 171
v 478 42
v 479 212
v 480 180
v 481 124
v 482 20
v 483 164
v 484 1
v 485 215
v 486 32
v 487 10
v 488 14
v 489 239
v 490 68
v 491 263
v 492 125
v 493 284
v 494 155
v 495 47
v 496 26
v 497 70
v 498 268
v 499 199
v 500 285
v 501 140
v 502 94
v 503 2
v 504 183
v 505 190
v 506 110
v 507 164
v 508 8
v 509 50
v 510 105
v 511 253
v 512 106
v 513 69
v 514 239
v 515 174
v 516 15
v 517 244
v 518 228
v 519 101
v 520 165
v 521 148
v 522 74
v 523 165
v 524 216
v 525 272
v 526 270
v 527 38
v 528 76
v 529 53
v 530 128
v 531 109
v 532 121
v 533 48
v 534 78
v 535 49
v 536 57
v 537 264
v 538 253
v 539 184
v 540 242
v 541 46
v 542 170
v 543 41
v 544 246
v 545 118
v 546 241
v 547 153
v 548 276
v 549 59
v 550 179
v 551 258
v 552 289
v 553 240
v 554 201
v 555 10
v 556 113
v 557 216
v 558 119
v 559 144
v 560 292
v 561 258
v 562 258
v 563 269
v 564 123
v 565 74
v 566 45
v 567 211
v 568 55
v 569 5
v 570 129
v 571 223
v 572 202
v 573 103
v 574 215
v 575 29
v 576 178
v 577 25
v 578 206
v 579 151
v 580 103
v 581 57
v 582 31
v 583 146
v 584 141
v 585 96
v 586 60
v 587 123
v 588 100
v 589 222
v 590 119
v 591 35
v 592 113
v 593 158
v 594 150
v 595 134
v 596 128
v 597 102
v 598 109
v 599 168
v 600 141
v 601 141
v 602 205
v 603 166
v 604 63
v 605 273
v 606 217
v 607 217
v 608 31
v 609 110
v 610 74
v 611 267
v 612 106
v 613 149
v 614 177
v 615 78
v 616 231
v 617 30
v 618 0
v 619 170
v 620 285
v 621 145
v 622 248
v 623 46
v 624 271
v 625 62
v 626 117
v 627 40
v 628 31
v 629 92
v 630 207
v 631 65
v 632 220
v 633 233
v 634 18
v 635 191
v 636 46
v 637 263
v 638 226
v 639 110
v 640 138
v 641 95
v 642 131
v 643 132
v 644 41
v 645 236
v 646 236
v 647 188
v 648 209
v 649 156
v 650 159
v 651 185
v 652 62
v 653 8
v 654 256
v 655 87
v 656 235
v 657 259
v 658 140
v 659 41
v 660 189
v 661 178
v 662 138
v 663 127
v 664 15
v 665 92
v 666 197
v 667 5
v 668 203
v 669 235
v 670 192
v 671 107
v 672 256
v 673 3
v 674 115
v 675 94
v 676 262
v 677 151
v 678 247
v 679 242
v 680 196
v 681 214
v 682 196
v 683 92
v 684 150
v 685 158
v 686 124
v 687 6
v 688 236
v 689 166
v 690 108
v 691 112
v 692 35
v 693 32
v 694 241
v 695 291
v 696 3
v 697 261
v 698 221
v 699 114
v 700 188
v 701 297
v 702 131
v 703 125
v 704 63
v 705 100
v 706 58
v 707 152
v 708 202
v 709 234
v 710 154
v 711 282
v 712 176
v 713 117
v 714 145
v 715 154
v 716 186
v 717 133
v 718 229
v 719 281
v 720 120
v 721 287
v 722 68
v 723 142
v 724 4
v 725 9
v 726 171
v 727 20
v 728 77
v 729 259
v 730 0
v 731 273
v 732 85
v 733 117
v 734 271
v 735 232
v 736 18
v 737 269
v 738 242
v 739 36
v 740 231
v 741 225
v 742 188
v 743 41
v 744 246
v 745 21
v 746 95
v 747 160
v 748 172
v 749 214
v 750 282
v 751 152
v 752 210
v 753 11
v 754 185
v 755 230
v 756 293
v 757 30
v 758 58
v 759 180
v 760 189
v 761 224
v 762 193
v 763 105
v 764 180
v 765 138
v 766 277
v 767 29
v 768 202
v 769 98
v 770 73
v 771 138
v 772 38
v 773 208
v 774 157
v 775 27
v 776 220
v 777 265
v 778 89
v 779 174
v 780 198
v 781 17
v 782 166
v 783 223
v 784 172
v 785 176
v 786 30
v 787 66
v 788 54
v 789 296
v 790 227
v 791 275
v 792 11
v 793 263
v 794 93
v 795 226
v 796 234
v 797 99
v 798 293
v 799 203
v 800 146
v 801 116
v 802 278
v 803 181
v 804 264
v 805 187
v 806 245
v 807 45
v 808 289
v 809 286
v 810 185
v 811 182
v 812 271
v 813 143
v 814 156
v 815 126
v 816 6
v 817 80
v 818 56
v 819 165
v 820 183
v 821 24
v 822 226
v 823 56
v 824 281
v 825 205
v 826 136
v 827 102
v 828 208
v 829 284
v 830 1
v 831 267
v 832 75
v 833 156
v 834 7
v 835 15
v 836 274
v 837 129
v 838 125
v 839 225
v 840 130
v 841 116
v 842 210
v 843 16
v 844 202
v 845 209
v 846 118
v 847 24
v 848 251
v 849 52
v 850 87
v 851 250
v 852 11
v 853 213
v 854 62
v 855 159
v 856 227
v 857 218
v 858 137
v 859 133
v 860 217
v 861 56
v 862 33
v 863 163
v 864 14
v 865 83
v 866 83
v 867 231
v 868 95
v 869 151
v 870 78
v 871 81
v 872 112
v 873 106
v 874 178
v 875 130
v 876 37
v 877 7
v 878 54
v 879 283
v 880 275
v 881 55
v 882 90
v 883 212
v 884 135
v 885 195
v 886 39
v 887 228
v 888 207
v 889 171
v 890 57
v 891 223
v 892 296
v 893 173
v 894 88
v 895 121
v 896 153
v 897 17
v 898 23
v 899 111
v 900 44
v 901 177
v 902 205
v 903 91
v 904 241
v 905 111
v 906 162
v 907 200
v 908 299
v 909 241
v 910 48
v 911 267
v 912 194
v 913 222
v 914 272
v 915 148
v 916 294
v 917 270
v 918 257
v 919 24
v 920 111
v 921 115
v 922 44
v 923 197
v 924 79
v 925 292
v 926 248
v 927 251
v 928 88
v 929 21
v 930 101
v 931 109
v 932 80
v 933 135
v 934 31
v 935 98
v 936 212
v 937 47
v 938 252
v 939 262
v 940 148
v 941 121
v 942 34
v 943 195
v 944 197
v 945 136
v 946 30
v 947 142
v 948 107
v 949 85
v 950 96
v 951 93
v 952 179
v 953 71
v 954 113
v 955 161
v 956 217
v 957 254
v 958 298
v 959 229
v 960 238
v 961 255
v 962 65
v 963 287
v 964 52
v 965 175
v 966 114
v 967 246
v 968 280
v 969 77
v 970 32
v 971 36
v 972 134
v 973 251
v 974 145
v 975 237
v 976 147
v 977 206
v 978 103
v 979 256
v 980 129
v 981 300
v 982 11
v 983 200
v 984 187
v 985 50
v 986 297
v 987 53
v 988 181
v 989 82
v 990 288
v 991 91
v 992 97
v 993 224
v 994 212
v 995 102
v 996 204
v 997 167
v 998 295
v 999 63
v 1000 15
